n = 60;
hosts = [| starter: 40,34,53,41,27,39,2,47,56,22,26,8,4,57,60,19,51,45,13,49
         | main: 6,58,37,42,32,59,12,36,11,16,10,17,15,54,1,35,18,3,43,7
         | dessert: 29,55,21,31,9,50,20,25,44,24,48,38,14,52,30,23,33,5,28,46
         |];

gc = 13;
outer_groups = [
  {1,   2,  3,  4,  5}, 
  {6,   7,  8,  9, 10}, 
  {11, 12, 13, 14, 15},
  {16, 17, 18, 19, 20},
  {21, 22, 23, 24, 25},
  {26, 27, 28, 29, 30},
  {31, 32, 33, 34, 35},
  {36, 37, 38, 39, 40},
  {41, 42, 43, 44, 45},
  {46, 47, 48, 49, 50},
  {51, 52, 53, 54, 55},
  {56, 57, 58},
  {59, 60},
];
